p cnf 62 115                                     
c ref_size: 3
c cand_size: 2
c symmetry-breaking clauses
c (none)
c (1) the candidate automaton is complete
c <1,!a & !b,1>δ ∨ <1,!a & !b,2>δ
31 39 0
c <1,b & !a,1>δ ∨ <1,b & !a,2>δ
33 41 0
c <1,a & !b,1>δ ∨ <1,a & !b,2>δ
35 43 0
c <1,a & b,1>δ ∨ <1,a & b,2>δ
37 45 0
c <2,!a & !b,1>δ ∨ <2,!a & !b,2>δ
47 55 0
c <2,b & !a,1>δ ∨ <2,b & !a,2>δ
49 57 0
c <2,a & !b,1>δ ∨ <2,a & !b,2>δ
51 59 0
c <2,a & b,1>δ ∨ <2,a & b,2>δ
53 61 0
c (2) the initial state is reachable
c <1,1>
21 0
c (2) states Cand[1] and Ref[1] are 0-length paths
c <1,1> → (<1,1,1,1>R ∧ <1,1,1,1>C)
-21 22 0
-21 23 0
c (3) augmenting paths based on Cand[1] and Ref[1]
c <1,1> ∧ <1,!a & !b,1>δ → <1,2>
-21 -31 11 0
c <1,1> ∧ <1,!a & !b,2>δ → <2,2>
-21 -39 16 0
c <1,1> ∧ <1,b & !a,1>δ → <1,3>
-21 -33 1 0
c <1,1> ∧ <1,b & !a,2>δ → <2,3>
-21 -41 6 0
c <1,1> ∧ <1,a & b,1>δ → <1,3>
-21 -37 1 0
c <1,1> ∧ <1,a & b,2>δ → <2,3>
-21 -45 6 0
c <1,1> ∧ <1,a & !b,2>δ → <2,1>
-21 -43 26 0
c (2) states Cand[1] and Ref[2] are 0-length paths
c <1,2> → (<1,2,1,2>R ∧ <1,2,1,2>C)
-11 12 0
-11 13 0
c (3) augmenting paths based on Cand[1] and Ref[2]
c <1,2> ∧ <1,!a & !b,2>δ → <2,2>
-11 -39 16 0
c <1,2> ∧ <1,b & !a,2>δ → <2,2>
-11 -41 16 0
c <1,2> ∧ <1,a & !b,2>δ → <2,2>
-11 -43 16 0
c <1,2> ∧ <1,a & b,2>δ → <2,2>
-11 -45 16 0
c (2) states Cand[1] and Ref[3] are 0-length paths
c <1,3> → (<1,3,1,3>R ∧ <1,3,1,3>C)
-1 2 0
-1 3 0
c (3) augmenting paths based on Cand[1] and Ref[3]
c <1,3> ∧ <1,!a & !b,2>δ → <2,3>
-1 -39 6 0
c <1,3> ∧ <1,b & !a,2>δ → <2,3>
-1 -41 6 0
c <1,3> ∧ <1,a & !b,2>δ → <2,3>
-1 -43 6 0
c <1,3> ∧ <1,a & b,2>δ → <2,3>
-1 -45 6 0
c (2) states Cand[2] and Ref[1] are 0-length paths
c <2,1> → (<2,1,2,1>R ∧ <2,1,2,1>C)
-26 29 0
-26 30 0
c (3) augmenting paths based on Cand[2] and Ref[1]
c <2,1> ∧ <2,!a & !b,1>δ → <1,2>
-26 -47 11 0
c <2,1> ∧ <2,!a & !b,2>δ → <2,2>
-26 -55 16 0
c <2,1> ∧ <2,b & !a,1>δ → <1,3>
-26 -49 1 0
c <2,1> ∧ <2,b & !a,2>δ → <2,3>
-26 -57 6 0
c <2,1> ∧ <2,a & b,1>δ → <1,3>
-26 -53 1 0
c <2,1> ∧ <2,a & b,2>δ → <2,3>
-26 -61 6 0
c <2,1> ∧ <2,a & !b,1>δ → <1,1>
-26 -51 21 0
c (2) states Cand[2] and Ref[2] are 0-length paths
c <2,2> → (<2,2,2,2>R ∧ <2,2,2,2>C)
-16 19 0
-16 20 0
c (3) augmenting paths based on Cand[2] and Ref[2]
c <2,2> ∧ <2,!a & !b,1>δ → <1,2>
-16 -47 11 0
c <2,2> ∧ <2,b & !a,1>δ → <1,2>
-16 -49 11 0
c <2,2> ∧ <2,a & !b,1>δ → <1,2>
-16 -51 11 0
c <2,2> ∧ <2,a & b,1>δ → <1,2>
-16 -53 11 0
c (2) states Cand[2] and Ref[3] are 0-length paths
c <2,3> → (<2,3,2,3>R ∧ <2,3,2,3>C)
-6 9 0
-6 10 0
c (3) augmenting paths based on Cand[2] and Ref[3]
c <2,3> ∧ <2,!a & !b,1>δ → <1,3>
-6 -47 1 0
c <2,3> ∧ <2,b & !a,1>δ → <1,3>
-6 -49 1 0
c <2,3> ∧ <2,a & !b,1>δ → <1,3>
-6 -51 1 0
c <2,3> ∧ <2,a & b,1>δ → <1,3>
-6 -53 1 0
c (4&5) matching paths from reference based on <1,1,1,1>
c <1,1,1,1>R ∧ <1,a & !b,1>δ → ¬<1,a & !b,1>F
-22 -35 -36 0
c <1,1,1,1>R ∧ <1,a & !b,2>δ → <1,1,2,1>R
-22 -43 24 0
c (4&5) matching paths from reference based on <1,1,2,1>
c <1,1,2,1>R ∧ <2,a & !b,1>δ → ¬<2,a & !b,1>F
-24 -51 -52 0
c (4&5) matching paths from reference based on <2,1,1,1>
c <2,1,1,1>R ∧ <1,a & !b,2>δ → ¬<1,a & !b,2>F
-27 -43 -44 0
c (4&5) matching paths from reference based on <2,1,2,1>
c <2,1,2,1>R ∧ <2,a & !b,1>δ → <2,1,1,1>R
-29 -51 27 0
c <2,1,2,1>R ∧ <2,a & !b,2>δ → ¬<2,a & !b,2>F
-29 -59 -60 0
c (4&5) matching paths from reference based on <1,2,1,2>
c <1,2,1,2>R ∧ <1,!a & !b,1>δ → ¬<1,!a & !b,1>F
-12 -31 -32 0
c <1,2,1,2>R ∧ <1,b & !a,1>δ → ¬<1,b & !a,1>F
-12 -33 -34 0
c <1,2,1,2>R ∧ <1,a & !b,1>δ → ¬<1,a & !b,1>F
-12 -35 -36 0
c <1,2,1,2>R ∧ <1,a & b,1>δ → ¬<1,a & b,1>F
-12 -37 -38 0
c <1,2,1,2>R ∧ <1,!a & !b,2>δ → <1,2,2,2>R
-12 -39 14 0
c <1,2,1,2>R ∧ <1,b & !a,2>δ → <1,2,2,2>R
-12 -41 14 0
c <1,2,1,2>R ∧ <1,a & !b,2>δ → <1,2,2,2>R
-12 -43 14 0
c <1,2,1,2>R ∧ <1,a & b,2>δ → <1,2,2,2>R
-12 -45 14 0
c (4&5) matching paths from reference based on <1,2,2,2>
c <1,2,2,2>R ∧ <2,!a & !b,1>δ → ¬<2,!a & !b,1>F
-14 -47 -48 0
c <1,2,2,2>R ∧ <2,b & !a,1>δ → ¬<2,b & !a,1>F
-14 -49 -50 0
c <1,2,2,2>R ∧ <2,a & !b,1>δ → ¬<2,a & !b,1>F
-14 -51 -52 0
c <1,2,2,2>R ∧ <2,a & b,1>δ → ¬<2,a & b,1>F
-14 -53 -54 0
c (4&5) matching paths from reference based on <2,2,1,2>
c <2,2,1,2>R ∧ <1,!a & !b,2>δ → ¬<1,!a & !b,2>F
-17 -39 -40 0
c <2,2,1,2>R ∧ <1,b & !a,2>δ → ¬<1,b & !a,2>F
-17 -41 -42 0
c <2,2,1,2>R ∧ <1,a & !b,2>δ → ¬<1,a & !b,2>F
-17 -43 -44 0
c <2,2,1,2>R ∧ <1,a & b,2>δ → ¬<1,a & b,2>F
-17 -45 -46 0
c (4&5) matching paths from reference based on <2,2,2,2>
c <2,2,2,2>R ∧ <2,!a & !b,1>δ → <2,2,1,2>R
-19 -47 17 0
c <2,2,2,2>R ∧ <2,b & !a,1>δ → <2,2,1,2>R
-19 -49 17 0
c <2,2,2,2>R ∧ <2,a & !b,1>δ → <2,2,1,2>R
-19 -51 17 0
c <2,2,2,2>R ∧ <2,a & b,1>δ → <2,2,1,2>R
-19 -53 17 0
c <2,2,2,2>R ∧ <2,!a & !b,2>δ → ¬<2,!a & !b,2>F
-19 -55 -56 0
c <2,2,2,2>R ∧ <2,b & !a,2>δ → ¬<2,b & !a,2>F
-19 -57 -58 0
c <2,2,2,2>R ∧ <2,a & !b,2>δ → ¬<2,a & !b,2>F
-19 -59 -60 0
c <2,2,2,2>R ∧ <2,a & b,2>δ → ¬<2,a & b,2>F
-19 -61 -62 0
c (4&5) matching paths from reference based on <1,3,1,3>
c (4&5) matching paths from reference based on <1,3,2,3>
c (4&5) matching paths from reference based on <2,3,1,3>
c (4&5) matching paths from reference based on <2,3,2,3>
c (6&7) matching paths from candidate based on <1,1,1,1>
c <1,1,1,1>C ∧ <1,a & !b,2>δ ∧ ¬<1,a & !b,2>F → <1,1,2,1>C
-23 -43 44 25 0
c (6&7) matching paths from candidate based on <1,1,2,1>
c (6&7) matching paths from candidate based on <2,1,1,1>
c (6&7) matching paths from candidate based on <2,1,2,1>
c <2,1,2,1>C ∧ <2,a & !b,1>δ ∧ ¬<2,a & !b,1>F → <2,1,1,1>C
-30 -51 52 28 0
c (6&7) matching paths from candidate based on <1,2,1,2>
c <1,2,1,2>C ∧ <1,!a & !b,2>δ ∧ ¬<1,!a & !b,2>F → <1,2,2,2>C
-13 -39 40 15 0
c <1,2,1,2>C ∧ <1,b & !a,2>δ ∧ ¬<1,b & !a,2>F → <1,2,2,2>C
-13 -41 42 15 0
c <1,2,1,2>C ∧ <1,a & !b,2>δ ∧ ¬<1,a & !b,2>F → <1,2,2,2>C
-13 -43 44 15 0
c <1,2,1,2>C ∧ <1,a & b,2>δ ∧ ¬<1,a & b,2>F → <1,2,2,2>C
-13 -45 46 15 0
c (6&7) matching paths from candidate based on <1,2,2,2>
c (6&7) matching paths from candidate based on <2,2,1,2>
c (6&7) matching paths from candidate based on <2,2,2,2>
c <2,2,2,2>C ∧ <2,!a & !b,1>δ ∧ ¬<2,!a & !b,1>F → <2,2,1,2>C
-20 -47 48 18 0
c <2,2,2,2>C ∧ <2,b & !a,1>δ ∧ ¬<2,b & !a,1>F → <2,2,1,2>C
-20 -49 50 18 0
c <2,2,2,2>C ∧ <2,a & !b,1>δ ∧ ¬<2,a & !b,1>F → <2,2,1,2>C
-20 -51 52 18 0
c <2,2,2,2>C ∧ <2,a & b,1>δ ∧ ¬<2,a & b,1>F → <2,2,1,2>C
-20 -53 54 18 0
c (6&7) matching paths from candidate based on <1,3,1,3>
c <1,3,1,3>C ∧ <1,!a & !b,1>δ → <1,!a & !b,1>F
-3 -31 32 0
c <1,3,1,3>C ∧ <1,b & !a,1>δ → <1,b & !a,1>F
-3 -33 34 0
c <1,3,1,3>C ∧ <1,a & !b,1>δ → <1,a & !b,1>F
-3 -35 36 0
c <1,3,1,3>C ∧ <1,a & b,1>δ → <1,a & b,1>F
-3 -37 38 0
c <1,3,1,3>C ∧ <1,!a & !b,2>δ ∧ ¬<1,!a & !b,2>F → <1,3,2,3>C
-3 -39 40 5 0
c <1,3,1,3>C ∧ <1,b & !a,2>δ ∧ ¬<1,b & !a,2>F → <1,3,2,3>C
-3 -41 42 5 0
c <1,3,1,3>C ∧ <1,a & !b,2>δ ∧ ¬<1,a & !b,2>F → <1,3,2,3>C
-3 -43 44 5 0
c <1,3,1,3>C ∧ <1,a & b,2>δ ∧ ¬<1,a & b,2>F → <1,3,2,3>C
-3 -45 46 5 0
c (6&7) matching paths from candidate based on <1,3,2,3>
c <1,3,2,3>C ∧ <2,!a & !b,1>δ → <2,!a & !b,1>F
-5 -47 48 0
c <1,3,2,3>C ∧ <2,b & !a,1>δ → <2,b & !a,1>F
-5 -49 50 0
c <1,3,2,3>C ∧ <2,a & !b,1>δ → <2,a & !b,1>F
-5 -51 52 0
c <1,3,2,3>C ∧ <2,a & b,1>δ → <2,a & b,1>F
-5 -53 54 0
c (6&7) matching paths from candidate based on <2,3,1,3>
c <2,3,1,3>C ∧ <1,!a & !b,2>δ → <1,!a & !b,2>F
-8 -39 40 0
c <2,3,1,3>C ∧ <1,b & !a,2>δ → <1,b & !a,2>F
-8 -41 42 0
c <2,3,1,3>C ∧ <1,a & !b,2>δ → <1,a & !b,2>F
-8 -43 44 0
c <2,3,1,3>C ∧ <1,a & b,2>δ → <1,a & b,2>F
-8 -45 46 0
c (6&7) matching paths from candidate based on <2,3,2,3>
c <2,3,2,3>C ∧ <2,!a & !b,1>δ ∧ ¬<2,!a & !b,1>F → <2,3,1,3>C
-10 -47 48 8 0
c <2,3,2,3>C ∧ <2,b & !a,1>δ ∧ ¬<2,b & !a,1>F → <2,3,1,3>C
-10 -49 50 8 0
c <2,3,2,3>C ∧ <2,a & !b,1>δ ∧ ¬<2,a & !b,1>F → <2,3,1,3>C
-10 -51 52 8 0
c <2,3,2,3>C ∧ <2,a & b,1>δ ∧ ¬<2,a & b,1>F → <2,3,1,3>C
-10 -53 54 8 0
c <2,3,2,3>C ∧ <2,!a & !b,2>δ → <2,!a & !b,2>F
-10 -55 56 0
c <2,3,2,3>C ∧ <2,b & !a,2>δ → <2,b & !a,2>F
-10 -57 58 0
c <2,3,2,3>C ∧ <2,a & !b,2>δ → <2,a & !b,2>F
-10 -59 60 0
c <2,3,2,3>C ∧ <2,a & b,2>δ → <2,a & b,2>F
-10 -61 62 0
